x
23
16
1
6
8
13
14
17
26
24
21
18
33
28
29
22
27
34
38
31
32
30
35
42
50
49
55
44
41
43
48
54
46
52
53
56
58
47
40
39
51
61
67
73
66
68
64
70
77
79
81
83
88
92
97
95
96
93
106
105
107
108
110
112
115
116
117
121
120
123
124
128
133
135
129
131
136
143
148
155
158
151
147
152
141
144
150
153
157
154
139
138
146
149
145
140
137
134
132
127
125
126
114
113
109
102
103
91
78
75
72
74
69
60
57
45
37
19
15
12
10
9
5
3
2
4
7
11
25
71
76
87
80
82
62
59
36
63
20
65
85
86
98
90
89
94
99
101
104
111
130
156
161
163
164
169
172
179
173
174
175
184
177
181
178
180
170
167
168
165
159
162
160
166
171
185
193
188
191
189
192
190
187
183
186
194
182
176
142
119
122
118
100
84
